
Gurobi 8.1.1 (win64) logging started 11/24/19 23:55:19

Changed value of parameter LogFile to logs/full/rlt/full-05-30-2.log
   Prev: gurobi.log  Default: 
Changed value of parameter LogToConsole to 0
   Prev: 1  Min: 0  Max: 1  Default: 1
Changed value of parameter TimeLimit to 3600.0
   Prev: 1e+100  Min: 0.0  Max: 1e+100  Default: 1e+100
Optimize a model with 188515 rows, 63190 columns and 443041 nonzeros
Variable types: 0 continuous, 63190 integer (355 binary)
Coefficient statistics:
  Matrix range     [1e+00, 1e+00]
  Objective range  [1e+00, 1e+00]
  Bounds range     [1e+00, 1e+00]
  RHS range        [1e+00, 1e+00]
Presolve time: 2.50s
Presolved: 188515 rows, 63190 columns, 443041 nonzeros
Variable types: 0 continuous, 63190 integer (63190 binary)
Found heuristic solution: objective 8.0000000
Found heuristic solution: objective 7.0000000

Root simplex log...

Iteration    Objective       Primal Inf.    Dual Inf.      Time
    3438    1.0000086e+00   1.300000e+01   0.000000e+00      5s
    4478    1.2000091e+00   1.040000e+01   0.000000e+00     11s
    5268    1.2157659e+00   4.062977e+02   0.000000e+00     15s
    7338    1.2177443e+00   1.358704e+00   0.000000e+00     20s
    7568    1.2177914e+00   0.000000e+00   0.000000e+00     21s

Root relaxation: objective 1.217791e+00, 7568 iterations, 17.53 seconds

    Nodes    |    Current Node    |     Objective Bounds      |     Work
 Expl Unexpl |  Obj  Depth IntInf | Incumbent    BestBd   Gap | It/Node Time

     0     0    1.21779    0 3399    7.00000    1.21779  82.6%     -   28s
H    0     0                       6.0000000    1.21779  79.7%     -   29s
H    0     0                       5.0000000    1.21779  75.6%     -   67s
     0     0    1.39152    0 2268    5.00000    1.39152  72.2%     -   80s
     0     0    1.48993    0 2265    5.00000    1.48993  70.2%     -  120s
     0     0    1.49473    0 2257    5.00000    1.49473  70.1%     -  130s
     0     0    1.51307    0 2154    5.00000    1.51307  69.7%     -  140s
     0     0    1.51342    0 2172    5.00000    1.51342  69.7%     -  187s
     0     0    1.52271    0 2557    5.00000    1.52271  69.5%     -  201s
     0     0    1.52378    0 2727    5.00000    1.52378  69.5%     -  258s
     0     0    1.53093    0 2399    5.00000    1.53093  69.4%     -  275s
     0     0    1.53152    0 2392    5.00000    1.53152  69.4%     -  312s
     0     0    1.54195    0 2374    5.00000    1.54195  69.2%     -  333s
     0     0    1.54223    0 2379    5.00000    1.54223  69.2%     -  410s
     0     0    1.55024    0 2164    5.00000    1.55024  69.0%     -  434s
     0     0    1.55040    0 2326    5.00000    1.55040  69.0%     -  460s
     0     0    1.55703    0 2284    5.00000    1.55703  68.9%     -  482s
     0     0    1.55706    0 2306    5.00000    1.55706  68.9%     -  567s
     0     0    1.56386    0 2439    5.00000    1.56386  68.7%     -  595s
     0     0    1.56402    0 2435    5.00000    1.56402  68.7%     -  614s
     0     0    1.57049    0 2424    5.00000    1.57049  68.6%     -  644s
     0     0    1.57061    0 2413    5.00000    1.57061  68.6%     -  689s
     0     0    1.57637    0 2402    5.00000    1.57637  68.5%     -  724s
     0     0    1.57639    0 2503    5.00000    1.57639  68.5%     -  769s
     0     0    1.58035    0 2606    5.00000    1.58035  68.4%     -  804s
     0     0    1.58040    0 2596    5.00000    1.58040  68.4%     -  868s
     0     0    1.58419    0 2540    5.00000    1.58419  68.3%     -  904s
     0     0    1.58794    0 2661    5.00000    1.58794  68.2%     -  970s
     0     0    1.59093    0 2683    5.00000    1.59093  68.2%     - 1076s
     0     0    1.59099    0 2711    5.00000    1.59099  68.2%     - 1157s
     0     0    1.59290    0 2653    5.00000    1.59290  68.1%     - 1189s
     0     0    1.59318    0 2682    5.00000    1.59318  68.1%     - 1230s
     0     0    1.59439    0 2723    5.00000    1.59439  68.1%     - 1259s
     0     0    1.59450    0 2592    5.00000    1.59450  68.1%     - 1357s
     0     0    1.59622    0 2845    5.00000    1.59622  68.1%     - 1391s
     0     0    1.59731    0 2799    5.00000    1.59731  68.1%     - 1541s
     0     0    1.59737    0 2815    5.00000    1.59737  68.1%     - 1644s
     0     0    1.59822    0 2772    5.00000    1.59822  68.0%     - 1676s
     0     0    1.59822    0 2765    5.00000    1.59822  68.0%     - 1778s
     0     0    1.59991    0 2584    5.00000    1.59991  68.0%     - 1819s
     0     0    1.60123    0 2662    5.00000    1.60123  68.0%     - 1881s
     0     0    1.60124    0 2649    5.00000    1.60124  68.0%     - 1910s
     0     0    1.60298    0 2598    5.00000    1.60298  67.9%     - 1948s
     0     0    1.60322    0 2604    5.00000    1.60322  67.9%     - 2048s
     0     0    1.60323    0 2592    5.00000    1.60323  67.9%     - 2051s
     0     0    1.60484    0 2456    5.00000    1.60484  67.9%     - 2090s
     0     0    1.60667    0 2714    5.00000    1.60667  67.9%     - 2150s
     0     0    1.60668    0 2714    5.00000    1.60668  67.9%     - 2261s
     0     0    1.60750    0 2722    5.00000    1.60750  67.8%     - 2300s
     0     0    1.60760    0 2715    5.00000    1.60760  67.8%     - 2342s
     0     0    1.60894    0 2600    5.00000    1.60894  67.8%     - 2379s
     0     0    1.61035    0 2437    5.00000    1.61035  67.8%     - 2452s
     0     0    1.61035    0 2373    5.00000    1.61035  67.8%     - 2649s
     0     0    1.61102    0 2632    5.00000    1.61102  67.8%     - 2682s
     0     0    1.61102    0 2632    5.00000    1.61102  67.8%     - 3600s

Cutting planes:
  Gomory: 4
  Zero half: 213

Explored 1 nodes (223041 simplex iterations) in 3600.12 seconds
Thread count was 4 (of 4 available processors)

Solution count 4: 5 6 7 8 

Time limit reached
Best objective 5.000000000000e+00, best bound 2.000000000000e+00, gap 60.0000%
